    2134
    1996
    2583
    2691
    1518
   26276
   11403
    8499
    9884
   10655
   43504
   36378
   45383
   51785
   38934
   87902
   84260
  104795
   89299
   72316
  214546
  150800
  224025
  116015
  240179
       2
       4
     755
      99
      22
    9934
    7178
    4674
    4017
    6459
   34892
   22739
   29467
   49352
   26423
   71111
   90163
   84126
  123893
   79883
  157505
  133289
  191099
  150279
  198076
       0
       0
       0
       0
       0
    1258
    3679
    2522
    3770
    5904
   25212
   17337
   30729
   18082
   25028
   76878
   85413
   92756
   77930
   74750
  150580
  131680
   98494
  135394
  135677
       0
       0
       0
       0
       0
     816
    4879
     973
     508
    3780
   20751
   36053
   28268
   28846
   15451
   89298
   66340
   61060
   42453
   56522
  177909
  139591
  148906
  179264
 120108
      0
      0
      0
      0
      0
      0
   1717
      0
   6185
   1295
  27310
  15867
  35106
  15467
  10574
  35727
  71922
  65433
 106043
 101665
  78315
 119925
 101157
 139488
 110392


